This is Ipopt version 3.14.16, running with linear solver MUMPS 5.7.3.

Number of nonzeros in equality constraint Jacobian...:        0
Number of nonzeros in inequality constraint Jacobian.:        1
Number of nonzeros in Lagrangian Hessian.............:        0

Total number of variables............................:        1
                     variables with only lower bounds:        0
                variables with lower and upper bounds:        1
                     variables with only upper bounds:        0
Total number of equality constraints.................:        0
Total number of inequality constraints...............:        1
        inequality constraints with only lower bounds:        0
   inequality constraints with lower and upper bounds:        1
        inequality constraints with only upper bounds:        0

iter    objective    inf_pr   inf_du lg(mu)  ||d||  lg(rg) alpha_du alpha_pr  ls
   0 -7.4872611e+00 0.00e+00 0.00e+00   0.0 0.00e+00    -  0.00e+00 0.00e+00   0
   1 -1.0036567e+01 0.00e+00 3.96e-03  -2.1 7.93e-03    -  9.98e-01 1.00e+00f  1
   2 -1.0751948e+01 0.00e+00 1.75e-03  -4.1 3.48e-03    -  9.96e-01 1.00e+00f  1
   3 -1.0751948e+01 0.00e+00 3.77e-05  -6.0 7.53e-05    -  1.00e+00 5.00e-01f  2
   4 -1.0751948e+01 0.00e+00 3.27e-05  -6.1 6.55e-05    -  1.00e+00 5.00e-01f  2
   5 -1.0751948e+01 0.00e+00 3.27e-05  -6.1 6.54e-05    -  1.00e+00 3.12e-02f  6
   6 -1.0751948e+01 0.00e+00 3.27e-05  -6.1 6.54e-05    -  1.00e+00 1.56e-02f  7
   7 -1.0751948e+01 0.00e+00 3.27e-05  -6.1 6.54e-05    -  1.00e+00 3.91e-03f  9
   8 -1.0751948e+01 0.00e+00 3.27e-05  -6.1 6.54e-05    -  1.00e+00 1.95e-03f 10
   9 -1.0751948e+01 0.00e+00 7.11e+04  -6.1 6.54e-05    -  1.00e+00 2.44e-04f 13
iter    objective    inf_pr   inf_du lg(mu)  ||d||  lg(rg) alpha_du alpha_pr  ls
  10 -1.0756296e+01 0.00e+00 3.08e-03  -6.1 1.42e+05    -  1.40e-05 2.37e-09f  7
  11 -1.0756296e+01 0.00e+00 1.23e-05  -6.6 5.79e-14    -  1.00e+00 1.00e+00f  1
  12 -1.0756296e+01 0.00e+00 9.81e-06  -6.7 4.63e-14    -  1.00e+00 1.00e+00f  1
  13 -1.0756296e+01 0.00e+00 9.81e-06  -6.7 4.63e-14    -  1.00e+00 1.00e+00f  1
  14 -1.0756296e+01 0.00e+00 9.80e-06  -6.7 1.96e-05    -  1.00e+00 1.00e+00f  1
  15 -1.0756296e+01 0.00e+00 9.79e-06  -6.7 1.96e-05    -  1.00e+00 3.12e-02f  6
  16 -1.0756296e+01 0.00e+00 9.79e-06  -6.7 1.96e-05    -  1.00e+00 7.81e-03f  8
  17 -1.0756296e+01 0.00e+00 9.79e-06  -6.7 1.96e-05    -  1.00e+00 3.91e-03f  9
  18 -1.0756296e+01 0.00e+00 9.79e-06  -6.7 1.96e-05    -  1.00e+00 1.95e-03f 10
  19 -1.0756296e+01 0.00e+00 1.46e+05  -6.7 1.96e-05    -  1.00e+00 9.77e-04f 11
iter    objective    inf_pr   inf_du lg(mu)  ||d||  lg(rg) alpha_du alpha_pr  ls
  20 -1.0756296e+01 0.00e+00 1.46e+05  -6.7 2.92e+05    -  6.79e-06 1.69e-17f 33
  21 -1.0756296e+01 0.00e+00 1.34e+05  -6.7 2.68e+05    -  1.00e+00 1.84e-17f 33
  22 -1.0756296e+01 0.00e+00 4.69e+04  -6.7 2.61e-01    -  1.00e+00 1.89e-11f 33
  23 -1.0756296e+01 0.00e+00 4.69e+04  -6.7 3.12e-02    -  1.00e+00 1.58e-10f 33
  24 -1.0756296e+01 0.00e+00 4.69e+04  -6.7 3.12e-02    -  1.00e+00 1.58e-10f 33
  25 -3.0293693e-01 0.00e+00 1.52e+05  -6.7 3.12e-02    -  1.00e+00 6.79e-01w  1
  26 -3.0293693e-01 0.00e+00 6.58e+03  -6.7 2.02e-10    -  9.57e-01 1.00e+00w  1
  27 -2.3058090e+00 0.00e+00 9.84e-08  -6.7 1.01e-03    -  4.65e-06 1.00e+00w  1
  28 -2.3058090e+00 0.00e+00 9.04e-07  -9.0 1.38e-13    -  1.00e+00 1.00e+00f  1
  29 -2.3058090e+00 0.00e+00 9.04e-07  -9.0 1.38e-13    -  1.00e+00 1.00e+00f  1
iter    objective    inf_pr   inf_du lg(mu)  ||d||  lg(rg) alpha_du alpha_pr  ls
  30 -2.3058090e+00 0.00e+00 9.04e-07  -9.0 1.38e-13    -  1.00e+00 1.00e+00f  1
  31 -2.3058090e+00 0.00e+00 9.02e-07  -9.0 1.80e-06    -  1.00e+00 1.00e+00f  1
  32 -2.3058090e+00 0.00e+00 9.00e-07  -9.0 1.80e-06    -  1.00e+00 1.00e+00f  1
  33 -2.3058090e+00 0.00e+00 8.99e-07  -9.0 1.80e-06    -  1.00e+00 1.00e+00f  1
  34 -2.3058090e+00 0.00e+00 8.97e-07  -9.0 1.79e-06    -  1.00e+00 1.00e+00f  1
  35 -2.3058090e+00 0.00e+00 8.96e-07  -9.0 1.79e-06    -  1.00e+00 1.00e+00f  1
  36 -2.3058090e+00 0.00e+00 8.94e-07  -9.0 1.79e-06    -  1.00e+00 1.00e+00f  1
  37 -2.3058090e+00 0.00e+00 8.93e-07  -9.0 1.79e-06    -  1.00e+00 1.00e+00f  1
  38 -2.3058090e+00 0.00e+00 8.91e-07  -9.0 1.78e-06    -  1.00e+00 1.00e+00f  1
  39 -2.3058090e+00 0.00e+00 8.89e-07  -9.0 1.78e-06    -  1.00e+00 1.00e+00f  1
iter    objective    inf_pr   inf_du lg(mu)  ||d||  lg(rg) alpha_du alpha_pr  ls
  40 -2.3058090e+00 0.00e+00 8.88e-07  -9.0 1.78e-06    -  1.00e+00 1.00e+00f  1
  41 -2.3058090e+00 0.00e+00 8.86e-07  -9.0 1.77e-06    -  1.00e+00 1.00e+00f  1

Number of Iterations....: 41

                                   (scaled)                 (unscaled)
Objective...............:  -2.3058089765050753e+00   -2.3058089765050753e+00
Dual infeasibility......:   8.8636170069690195e-07    8.8636170069690195e-07
Constraint violation....:   0.0000000000000000e+00    0.0000000000000000e+00
Variable bound violation:   0.0000000000000000e+00    0.0000000000000000e+00
Complementarity.........:   9.0909090909019421e-10    9.0909090909019421e-10
Overall NLP error.......:   8.8636170069690195e-07    8.8636170069690195e-07


Number of objective function evaluations             = 361
Number of objective gradient evaluations             = 42
Number of equality constraint evaluations            = 0
Number of inequality constraint evaluations          = 361
Number of equality constraint Jacobian evaluations   = 0
Number of inequality constraint Jacobian evaluations = 42
Number of Lagrangian Hessian evaluations             = 0
Total seconds in IPOPT                               = 4.294

EXIT: Solved To Acceptable Level.
